0 107860 
1 104276 
2 103160 
3 101932 
4 101378 
5 99194 
6 98606 
7 98258 
8 97016 
9 96560 
10 96132 
11 96052 
12 93700 
13 92758 
14 92756 
15 92256 
16 91116 
17 91068 
18 91032 
19 90924 
20 89912 
21 89720 
22 89262 
23 88842 
24 88588 
25 88556 
26 87204 
27 86268 
28 85864 
29 84504 
30 84478 
31 84002 
32 83686 
33 83206 
34 82800 
35 80756 
36 78800 
37 77784 
38 77394 
39 75582 
40 73842 
41 73478 
42 71736 
43 71732 
44 71504 
45 71316 
46 71050 
47 69946 
48 69920 
49 69752 
50 68516 
51 68348 
52 67028 
53 66692 
54 66370 
55 66344 
56 66040 
57 64306 
58 63728 
59 63000 
60 62590 
61 62522 
62 62242 
63 62212 
64 60608 
65 59622 
66 59284 
67 59160 
68 57994 
69 55890 
70 55040 
71 55040 

